
Gurobi 11.0.3 (linux64) logging started Thu Apr 16 12:50:16 2026

Set parameter LogFile to value "tree/results/blsc/blsc_depth-4_run-3/Full MIP/LogFile_FullModel.txt"
Gurobi Optimizer version 11.0.3 build v11.0.3rc0 (linux64 - "CentOS Linux 7 (Core)")

CPU model: Intel(R) Xeon(R) Platinum 8260 CPU @ 2.40GHz, instruction set [SSE2|AVX|AVX2|AVX512]
Thread count: 96 physical cores, 192 logical processors, using up to 32 threads

Optimize a model with 97610 rows, 60136 columns and 573183 nonzeros
Model fingerprint: 0x6e4c782e
Model has 7488 general constraints
Variable types: 37624 continuous, 22512 integer (22512 binary)
Coefficient statistics:
  Matrix range     [2e-03, 1e+04]
  Objective range  [2e-03, 1e+04]
  Bounds range     [1e+00, 5e+02]
  RHS range        [1e-04, 5e+02]

User MIP start produced solution with objective -185899 (0.20s)
Loaded user MIP start with objective -185899

Presolve added 7472 rows and 29952 columns
Presolve time: 0.79s
Presolved: 105082 rows, 90088 columns, 633162 nonzeros
Presolved model has 29952 SOS constraint(s)
Variable types: 37624 continuous, 52464 integer (52464 binary)

Deterministic concurrent LP optimizer: primal simplex, dual simplex, and barrier
Showing barrier log only...

Root relaxation presolved: 105082 rows, 90088 columns, 633162 nonzeros

Root barrier log...

Ordering time: 0.03s

Barrier statistics:
 Dense cols : 75
 AA' NZ     : 6.660e+05
 Factor NZ  : 2.310e+06 (roughly 100 MB of memory)
 Factor Ops : 5.485e+07 (less than 1 second per iteration)
 Threads    : 30

                  Objective                Residual
Iter       Primal          Dual         Primal    Dual     Compl     Time
   0  -1.55927858e+05  7.23459027e+08  4.00e+03 0.00e+00  7.72e+05     2s
   1  -1.07494678e+05  1.18073581e+09  1.06e+03 1.91e+01  1.80e+05     2s
   2  -7.66672520e+04  1.13689734e+09  1.05e+02 2.50e+00  2.20e+04     3s
   3  -1.03957887e+04  5.50346631e+08  1.04e+01 3.08e-01  3.79e+03     3s
   4  -1.03877026e+03  7.23222367e+07  1.03e+00 3.08e-02  4.10e+02     3s
   5  -1.02971600e+02  8.50192724e+06  1.03e-01 3.07e-03  4.48e+01     3s
   6  -9.39204669e+00  8.68696492e+05  1.07e-02 3.09e-04  4.49e+00     3s
   7  -3.41667818e-02  9.14482813e+04  1.47e-03 3.25e-05  4.71e-01     3s
   8   9.00392178e-01  1.14880796e+04  4.50e-04 4.08e-06  5.92e-02     4s
   9   9.73072459e-01  1.16535202e+03  4.46e-05 4.10e-07  5.99e-03     4s
  10   9.97306844e-01  1.17572000e+02  4.42e-06 4.10e-08  6.00e-04     4s
  11   9.99730612e-01  1.27630670e+01  4.38e-07 4.11e-09  6.05e-05     4s
  12   9.99973061e-01  2.17630731e+00  4.38e-08 4.11e-10  6.05e-06     4s
  13   9.99997306e-01  1.11869900e+00  4.34e-09 4.11e-11  6.10e-07     4s
  14   9.99999731e-01  1.01186990e+00  4.34e-10 4.11e-12  6.10e-08     5s
  15   9.99999973e-01  1.00119777e+00  4.31e-11 4.11e-13  6.15e-09     5s
  16   9.99999997e-01  1.00011978e+00  4.31e-12 4.11e-14  6.15e-10     5s
  17   1.00000000e+00  1.00001198e+00  6.82e-13 4.11e-15  6.15e-11     5s
  18   1.00000000e+00  1.00000120e+00  4.48e-13 4.11e-16  6.15e-12     5s
  19   1.00000000e+00  1.00000012e+00  4.16e-13 1.42e-14  6.15e-13     5s
  20   1.00000000e+00  1.00000001e+00  4.19e-13 1.42e-14  6.15e-14     6s

Barrier solved model in 20 iterations and 5.64 seconds (3.41 work units)
Optimal objective 1.00000000e+00


Root crossover log...

    4488 DPushes remaining with DInf 0.0000000e+00                 6s
       0 DPushes remaining with DInf 0.0000000e+00                 6s

   35615 PPushes remaining with PInf 0.0000000e+00                 6s
       0 PPushes remaining with PInf 0.0000000e+00                 6s

  Push phase complete: Pinf 0.0000000e+00, Dinf 0.0000000e+00      6s


Root simplex log...

Iteration    Objective       Primal Inf.    Dual Inf.      Time
   35619    1.0000000e+00   0.000000e+00   0.000000e+00      6s
   35619    1.0000000e+00   0.000000e+00   0.000000e+00      6s
Concurrent spin time: 0.01s

Solved with barrier

Root relaxation: objective 1.000000e+00, 35619 iterations, 4.98 seconds (2.68 work units)
Total elapsed time = 20.21s (DegenMoves)

    Nodes    |    Current Node    |     Objective Bounds      |     Work
 Expl Unexpl |  Obj  Depth IntInf | Incumbent    BestBd   Gap | It/Node Time

     0     0    1.00000    0 7536 -185899.16    1.00000   100%     -   20s
     0     2    1.00000    0 7500 -185899.16    1.00000   100%     -  228s
     1     4    1.00000    1 7500 -185899.16    1.00000   100% 16441  254s
     3     8    1.00000    2 7500 -185899.16    1.00000   100%  5482  771s
H   31    64                    -164099.1795    1.00000   100%   532  986s
H   32    64                    -94299.24572    1.00000   100%   516  986s
H   33    64                    -22199.19230    1.00000   100%   500  986s
H   40    64                       0.7585470    1.00000  31.8%   413  986s
H   41    64                       0.8055556    1.00000  24.1%   403  986s
    95   128    1.00000    7 7498    0.80556    1.00000  24.1%   175 1348s
   159   192    1.00000    9 7498    0.80556    1.00000  24.1%   105 3623s

Explored 191 nodes (58417 simplex iterations) in 3623.88 seconds (4567.51 work units)
Thread count was 32 (of 192 available processors)

Solution count 6: 0.805556 0.758547 -22199.2 ... -185899

Time limit reached
Best objective 8.055555555556e-01, best bound 1.000000000000e+00, gap 24.1379%

User-callback calls 393107, time in user-callback 3.02 sec
